%Chk=entry_0_oxidised_neutral.chk
%mem=64GB
%nprocshared=16
#P M062X/6-31++G(d,p) Geom=AllCheck Guess=Read SCRF=(SMD,Solvent=Water) 
